
  32   50
  11   19    5   14   12   12   10    7   10    8   16    9    8    0   13   10    0   15   10   11    9   10   19    3    8    8   11   13    0   14   14   11    0    0    0    0    0    0    0    0    0    0    0    0    0    0    0    0    0    0

   0   0   0   0   0   0   0   0   0   0   0   0   0   0   0   0   0   0   0   0   0   0   0   0   0   0   0   0   0   0   0   0   0   0   0   0   0   0   0   0   0   0   0   0   0   0   0   0   0   0   0   8 2 3 4 5 6 8 16 18 
   9   0   0   0  10   0   0   0   0   0   0   0   0   0   0   0   0   0   0   0   0   0   0   8   0   0   0   0   0   0   0   0   0   0   0   0   0   0   0   0   0   0   0   0   0   0   0   0   0   0   0   8 31 21 19 13 12 11 10 9 
   3   0   0   3   0   0   0   2   0   0   0   0   0   0   0   0   0   0   8   0   0   9   0   0   0   0   0   0   0   0   6   0   0   0   0   0   0   0   0   0   0   0   0   0   0   0   0   0   0   0   0   6 17 15 14 13 10 7 
   4   0   0   0   0   4   0   0   0   0   0   0   0   0   0   0   0   0   0   0   0   0   0  10   0   0   0   0   7   0   3   0   1   0   0   0   0   0   0   0   0   0   0   0   0   0   0   0   0   0   0   7 29 28 20 19 17 14 12 
   5   0   0   0   0   0   0   9   0   0   0   0   0   0   0   0   0   0   0   0   0   0   1   0   0   0   0   0   0   0   0   0   9   0   0   0   0   0   0   0   0   0   0   0   0   0   0   0   0   0   0   3 28 12 11 
   3   0   0   0   7   8   0   0   0   0   0   0   0   0   0   3   0   0   0   0   0   0   0   0   0   0   0   0   0   0   0   0   0   0   0   0   0   0   0   0   0   0   0   0   0   0   0   0   0   0   0   3 20 14 13 
   4   0   0   0   0   0   0   0   0   0   0   0   0   8   0   2   0   0   0   0   0   2   0   0   1   0   0   0   0   0   0   0   0   0   0   0   0   0   0   0   0   0   0   0   0   0   0   0   0   0   0   6 30 28 27 26 25 22 
   2   0   0   0   0   0  10   0   1   0   0   6   9   0   0   0   0   0   0   0   0   0   1   0   0   0   0   0   0   0   0   0   0   0   0   0   0   0   0   0   0   0   0   0   0   0   0   0   0   0   0   6 29 27 26 25 23 22 
   4   0   7   0   0   0   0   0   0   0   0   0   0   0   0   0   5   0   2   0   0   0   0   0   0   0   0   0   1   0   0   7   0   0   0   0   0   0   0   0   0   0   0   0   0   0   0   0   0   0   0   5 28 27 25 22 20 
   9   0   0   0   0   0   5   0   0   0   0   0   0   0   0   0   0   0   0   0   0   3   0   0   0   0   0   0   3   0   0   0   0   0   0   0   0   0   0   0   0   0   0   0   0   0   0   0   0   0   0   4 28 25 22 20 
   8   0   8   0   0   0   0   0   0   0   0   0   0   0   0   0   0   0   0   0   0   4   0   9   0   0   0   0   8   0   0   0   4   0   0   0   0   0   0   0   0   0   0   0   0   0   0   0   0   0   0   4 29 27 26 24 
   3   0   1   0   0   0   0   0   0   0   0   0   0   2   0   0   0   0   0   0   0   0   0   0   0   0   0   0   0   0   0   0   0   0   0   0   0   0   0   0   0   0   0   0   0   0   0   0   0   0   0   3 30 25 22 
   9   0   0   0   0   0   0   3   0   0   0   0   0   0   0   0   0   0   0   0   3   0   0   8   0   0   0   0   0   0   0   0   0   0   0   0   0   0   0   0   0   0   0   0   0   0   0   0   0   0   0   3 29 25 22 
   8   6   0   0   0   8   0   0   0   0   0   0   0   0   0   0   0   0   0   0   0   0   0   0   0   0   0   0   0   0   0   1   0   0   0   0   0   0   0   0   0   0   0   0   0   0   0   0   0   0   0   3 27 25 22 
   1   9   0   0   0   0   0   0   0  10   0  10   0   0   0   0   0   0   0   0   5   0   0   0   0   0   0   0   0   0   0   0   0   0   0   0   0   0   0   0   0   0   0   0   0   0   0   0   0   0   0   3 26 25 22 
   3   0   0   0   0   0   0   0   0   0   0  10   0   0   0   0   0   0   0   0   0   0   0   0   0   0   0   9   0   0   8   0   0   0   0   0   0   0   0   0   0   0   0   0   0   0   0   0   0   0   0   3 28 25 22 
   6   0   0   0   0   0   0   0   0   0   8   0   4   0   0   0   0   0   0   0   0   0   7   0   0   5   0   0   0   0   6   0   4   0   0   0   0   0   0   0   0   0   0   0   0   0   0   0   0   0   0   3 26 25 24 
   3   0   0   0   0   0   0   0   0   0   0   4   0   7   0   0   0   0  10   0   0   0   0   0   0   0   0   0   0   0   0   0   0   0   0   0   0   0   0   0   0   0   0   0   0   0   0   0   0   0   0   3 27 26 25 
   4   7   9   0   0   7   0   0   0   0   0   9   0   0   0   0   0   0   0   0   0   0   0   7   0   0   0   0   4   0   0   9   0   0   0   0   0   0   0   0   0   0   0   0   0   0   0   0   0   0   0   2 25 22 
   3  10   0   5   0   0   0   0   5   0   0   0   0   0   0   0  10   0   0   0   0   0   0   0   0   0   0   0   0   0   0   0   0   0   0   0   0   0   0   0   0   0   0   0   0   0   0   0   0   0   0   2 26 24 
   1   0   0   0   0   0   0   0   0   2   0   0   1   0   0   6   0   0   0   0   0   0   0   0   1   0   0   0   0   0   0   0   0   0   0   0   0   0   0   0   0   0   0   0   0   0   0   0   0   0   0   1 22 
  10   0   0   0   0   0   0   0   0   0   0   6   0   0   0  10   0   0   1   0   8   0   0   0   0   0   1  10   0   0  10   0   0   0   0   0   0   0   0   0   0   0   0   0   0   0   0   0   0   0   0   1 24 
   2   0   0   0   0   0   0   0   2   0   0   0   0   0   0  10   0   0   0   0   2   0   0   3   0   0   0   0   0   0   0   0   0   0   0   0   0   0   0   0   0   0   0   0   0   0   0   0   0   0   0   1 24 
   3   0   0   0   0   0   0   0   0   0   0   0   3   0   0   0   0   0   0  10   0   0   0   0   0   0   0   0   0   0   0   0   0   0   0   0   0   0   0   0   0   0   0   0   0   0   0   0   0   0   0   1 32
   3   0   7   0   0   0   0   0   0   5   0   0   5   0   0   0   0   0   0   0   0   0   0   0   3   0   0   0   0   0   0   0   0   0   0   0   0   0   0   0   0   0   0   0   0   0   0   0   0   0   0   1 32
   6   0   0   0   0   0  10   0   6   0   0   0   0   0   0   0   0   0   2   0   0   0   0   0   0   0   0   0   0   0   0   0   0   0   0   0   0   0   0   0   0   0   0   0   0   0   0   0   0   0   0   1 32
   1   0   9   0   0   0   0   0   0   0   0   0   0   0   0   0   0   0   0   0   1   0   0   0   0   0   0   0   0   0   0   0   0   0   0   0   0   0   0   0   0   0   0   0   0   0   0   0   0   0   0   1 32
  10   0   0   0   0   0   0   0   3   0   0   3   0   0   0   0   0   0   8   0   0   4   0   0   0   0   0   1   0   0   0   3   0   0   0   0   0   0   0   0   0   0   0   0   0   0   0   0   0   0   0   1 32
   8   0   0   0   0   0   4  10   0   0   0   0   0   0   0   6   0   0   0   0   0   0   0   0   0   0   0   1   0   0   0   0   0   0   0   0   0   0   0   0   0   0   0   0   0   0   0   0   0   0   0   1 32
   7   0   0   0   0   0   0   0   0   0   8   0   0   0   0   0   0   0   0   0   6   0   0   0   0   0   0   0   0   0   0   0   0   0   0   0   0   0   0   0   0   0   0   0   0   0   0   0   0   0   0   1 32
   9   0   0   0   8   0   8   0   0   9   0   0   2   0   0   0   0   0   0   0   0   0   6   0   0   5   8   0   0   0   0   0   0   0   0   0   0   0   0   0   0   0   0   0   0   0   0   0   0   0   0   1 32
   0   0   0   0   0   0   0   0   0   0   0   0   0   0   0   0   0   0   0   0   0   0   0   0   0   0   0   0   0   0   0   0   0   0   0   0   0   0   0   0   0   0   0   0   0   0   0   0   0   0   0   0 
